16 32
1 2 1
1 5 3
2 3 5
2 6 1
3 4 1
3 7 5
4 8 3
5 6 1
5 9 2
6 7 5
6 10 3
7 8 2
7 11 4
8 12 1
9 10 5
9 13 4
10 11 1
10 14 3
11 12 4
11 15 2
12 16 2
13 14 4
14 15 2
15 16 1
1 13 2
2 14 4
3 15 4
4 16 1
1 4 4
5 8 2
9 12 5
13 16 4
